sat
(:max-memory              30.70
 :memory                  18.87
 :num-allocs              28488763
 :rlimit-count            240898
 :sat-backjumps           175
 :sat-conflicts           175
 :sat-decisions           959
 :sat-del-clause          9181
 :sat-elim-bool-vars-res  1879
 :sat-elim-clauses        65
 :sat-elim-literals       171
 :sat-minimized-lits      329
 :sat-mk-clause-2ary      8365
 :sat-mk-clause-3ary      3980
 :sat-mk-clause-nary      26954
 :sat-mk-var              7036
 :sat-probing-assigned    223
 :sat-propagations-2ary   57528
 :sat-propagations-nary   44494
 :sat-restarts            22
 :sat-scc-elim-binary     4
 :sat-scc-elim-vars       27
 :sat-subs-resolution     107
 :sat-subs-resolution-dyn 6
 :sat-subsumed            1619
 :sat-units               397
 :time                    0.09
 :total-time              0.10)
